<?xml version = "1.0" encoding="UTF-8" standalone="yes"?>
<CPLEXSolution version="1.2">
 <header
   problemName="mknap0_cut_n1"
   objectiveValue="5"
   solutionTypeValue="1"
   solutionTypeString="basic"
   solutionStatusValue="1"
   solutionStatusString="optimal"
   solutionMethodString="dual"
   primalFeasible="1"
   dualFeasible="1"
   simplexIterations="1"
   writeLevel="1"/>
 <quality
   epRHS="9.9999999999999995e-07"
   epOpt="9.9999999999999995e-07"
   maxPrimalInfeas="0"
   maxDualInfeas="0"
   maxPrimalResidual="0"
   maxDualResidual="0"
   maxX="1"
   maxPi="15"
   maxSlack="0"
   maxRedCost="5"
   kappa="111.00000000000001"/>
 <linearConstraints>
  <constraint name="c0" index="0" status="BS" slack="0" dual="-0"/>
  <constraint name="cut_1" index="1" status="LL" slack="0" dual="15"/>
 </linearConstraints>
 <variables>
  <variable name="x0" index="0" status="UL" value="1" reducedCost="5"/>
  <variable name="x1" index="1" status="BS" value="0" reducedCost="0"/>
  <variable name="s0" index="2" status="LL" value="0" reducedCost="0"/>
 </variables>
 <objectiveValues>
  <objective index="0" name="" value="5"/>
 </objectiveValues>
</CPLEXSolution>
